NAME transpiration_srl_ilp
* Max problem is converted into Min one
ROWS
 N  OBJ
 L  constraint1_3600
 L  constraint1_1530
 L  constraint1_4730
 L  constraint1_1150
 L  constraint1_4450
 L  constraint1_4121
 L  constraint2_3600
 L  constraint2_3601
 L  constraint2_3602
 L  constraint2_3603
 L  constraint2_3610
 L  constraint2_3611
 L  constraint2_3612
 L  constraint2_3613
 L  constraint2_1530
 L  constraint2_1531
 L  constraint2_1532
 L  constraint2_1533
 L  constraint2_4730
 L  constraint2_4731
 L  constraint2_4732
 L  constraint2_4733
 L  constraint2_1150
 L  constraint2_1151
 L  constraint2_1152
 L  constraint2_1153
 L  constraint2_4450
 L  constraint2_4451
 L  constraint2_4452
 L  constraint2_4453
 L  constraint2_390
 L  constraint2_391
 L  constraint2_392
 L  constraint2_393
 L  constraint2_5880
 L  constraint2_5881
 L  constraint2_5882
 L  constraint2_5883
 L  constraint2_4120
 L  constraint2_4121
 L  constraint2_4122
 L  constraint2_4123
COLUMNS
    MARKER    'MARKER'                 'INTORG'
    Z_360_0_0  OBJ       -2.6985634810097585e-04
    Z_360_0_0  constraint1_3600  1
    Z_360_0_0  constraint2_3600  1
    Z_360_0_1  OBJ       -8.2384083224850216e-04
    Z_360_0_1  constraint1_3600  1
    Z_360_0_1  constraint2_3601  1
    Z_360_0_2  OBJ       -6.2692359672173207e-03
    Z_360_0_2  constraint1_3600  1
    Z_360_0_2  constraint2_3602  1
    Z_360_0_3  OBJ       -2.8436637205001036e-01
    Z_360_0_3  constraint1_3600  1
    Z_360_0_3  constraint2_3603  1
    Z_360_0_4  OBJ       -6.0827069480242302e-01
    Z_360_0_4  constraint1_3600  1
    Z_153_0_0  OBJ       -1.2499138158574492e-03
    Z_153_0_0  constraint1_1530  1
    Z_153_0_0  constraint2_1530  1
    Z_153_0_1  OBJ       -7.5410960856015820e-04
    Z_153_0_1  constraint1_1530  1
    Z_153_0_1  constraint2_1531  1
    Z_153_0_2  OBJ       -2.4114326797143232e-02
    Z_153_0_2  constraint1_1530  1
    Z_153_0_2  constraint2_1532  1
    Z_153_0_3  OBJ       -2.1733108381830002e-01
    Z_153_0_3  constraint1_1530  1
    Z_153_0_3  constraint2_1533  1
    Z_153_0_4  OBJ       -6.5655056596013917e-01
    Z_153_0_4  constraint1_1530  1
    Z_473_0_0  OBJ       -9.3794048711405547e-03
    Z_473_0_0  constraint1_4730  1
    Z_473_0_0  constraint2_4730  1
    Z_473_0_1  OBJ       -7.9111882607612143e-03
    Z_473_0_1  constraint1_4730  1
    Z_473_0_1  constraint2_4731  1
    Z_473_0_2  OBJ       -1.5684725245393605e-02
    Z_473_0_2  constraint1_4730  1
    Z_473_0_2  constraint2_4732  1
    Z_473_0_3  OBJ       -6.2025617926175815e-03
    Z_473_0_3  constraint1_4730  1
    Z_473_0_3  constraint2_4733  1
    Z_473_0_4  OBJ       -8.6082211983008705e-01
    Z_473_0_4  constraint1_4730  1
    Z_115_0_0  OBJ       -6.0641884254165508e-03
    Z_115_0_0  constraint1_1150  1
    Z_115_0_0  constraint2_1150  1
    Z_115_0_1  OBJ       -3.9441427718453555e-02
    Z_115_0_1  constraint1_1150  1
    Z_115_0_1  constraint2_1151  1
    Z_115_0_2  OBJ       -3.3210666104262375e-03
    Z_115_0_2  constraint1_1150  1
    Z_115_0_2  constraint2_1152  1
    Z_115_0_3  OBJ       -4.8153098589499160e-01
    Z_115_0_3  constraint1_1150  1
    Z_115_0_3  constraint2_1153  1
    Z_115_0_4  OBJ       -3.6964233135071206e-01
    Z_115_0_4  constraint1_1150  1
    Z_445_0_0  OBJ       -8.4553629068345598e-03
    Z_445_0_0  constraint1_4450  1
    Z_445_0_0  constraint2_4450  1
    Z_445_0_1  OBJ       -4.6359422522948930e-03
    Z_445_0_1  constraint1_4450  1
    Z_445_0_1  constraint2_4451  1
    Z_445_0_2  OBJ       -1.7151195440038556e-03
    Z_445_0_2  constraint1_4450  1
    Z_445_0_2  constraint2_4452  1
    Z_445_0_3  OBJ       -6.9915238839481095e-03
    Z_445_0_3  constraint1_4450  1
    Z_445_0_3  constraint2_4453  1
    Z_445_0_4  OBJ       -8.7820205141291874e-01
    Z_445_0_4  constraint1_4450  1
    Z_412_1_0  OBJ       -5.6160935588083372e-04
    Z_412_1_0  constraint1_4121  1
    Z_412_1_0  constraint2_4120  1
    Z_412_1_1  OBJ       -1.1559708434871862e-03
    Z_412_1_1  constraint1_4121  1
    Z_412_1_1  constraint2_4121  1
    Z_412_1_2  OBJ       -6.4359422847037739e-01
    Z_412_1_2  constraint1_4121  1
    Z_412_1_2  constraint2_4122  1
    Z_412_1_3  OBJ       -4.5804379634923533e-03
    Z_412_1_3  constraint1_4121  1
    Z_412_1_3  constraint2_4123  1
    Z_412_1_4  OBJ       -2.5010775336676211e-01
    Z_412_1_4  constraint1_4121  1
    MARKER    'MARKER'                 'INTEND'
RHS
    RHS1      constraint1_3600  1
    RHS1      constraint1_1530  1
    RHS1      constraint1_4730  1
    RHS1      constraint1_1150  1
    RHS1      constraint1_4450  1
    RHS1      constraint1_4121  1
    RHS1      constraint2_3600  1
    RHS1      constraint2_3601  1
    RHS1      constraint2_3602  1
    RHS1      constraint2_3603  1
    RHS1      constraint2_3610  1
    RHS1      constraint2_3611  1
    RHS1      constraint2_3612  1
    RHS1      constraint2_3613  1
    RHS1      constraint2_1530  1
    RHS1      constraint2_1531  1
    RHS1      constraint2_1532  1
    RHS1      constraint2_1533  1
    RHS1      constraint2_4730  1
    RHS1      constraint2_4731  1
    RHS1      constraint2_4732  1
    RHS1      constraint2_4733  1
    RHS1      constraint2_1150  1
    RHS1      constraint2_1151  1
    RHS1      constraint2_1152  1
    RHS1      constraint2_1153  1
    RHS1      constraint2_4450  1
    RHS1      constraint2_4451  1
    RHS1      constraint2_4452  1
    RHS1      constraint2_4453  1
    RHS1      constraint2_390  1
    RHS1      constraint2_391  1
    RHS1      constraint2_392  1
    RHS1      constraint2_393  1
    RHS1      constraint2_5880  1
    RHS1      constraint2_5881  1
    RHS1      constraint2_5882  1
    RHS1      constraint2_5883  1
    RHS1      constraint2_4120  1
    RHS1      constraint2_4121  1
    RHS1      constraint2_4122  1
    RHS1      constraint2_4123  1
BOUNDS
 UP BND1      Z_360_0_0  1
 UP BND1      Z_360_0_1  1
 UP BND1      Z_360_0_2  1
 UP BND1      Z_360_0_3  1
 UP BND1      Z_360_0_4  1
 UP BND1      Z_153_0_0  1
 UP BND1      Z_153_0_1  1
 UP BND1      Z_153_0_2  1
 UP BND1      Z_153_0_3  1
 UP BND1      Z_153_0_4  1
 UP BND1      Z_473_0_0  1
 UP BND1      Z_473_0_1  1
 UP BND1      Z_473_0_2  1
 UP BND1      Z_473_0_3  1
 UP BND1      Z_473_0_4  1
 UP BND1      Z_115_0_0  1
 UP BND1      Z_115_0_1  1
 UP BND1      Z_115_0_2  1
 UP BND1      Z_115_0_3  1
 UP BND1      Z_115_0_4  1
 UP BND1      Z_445_0_0  1
 UP BND1      Z_445_0_1  1
 UP BND1      Z_445_0_2  1
 UP BND1      Z_445_0_3  1
 UP BND1      Z_445_0_4  1
 UP BND1      Z_412_1_0  1
 UP BND1      Z_412_1_1  1
 UP BND1      Z_412_1_2  1
 UP BND1      Z_412_1_3  1
 UP BND1      Z_412_1_4  1
QUADOBJ
    Z_360_0_0  Z_473_0_0  -7.0854426499632750e-02
    Z_360_0_0  Z_115_0_0  -2.8341527383454183e-02
    Z_360_0_0  Z_445_0_0  -1.0512373229985647e-01
    Z_360_0_0  Z_412_1_0  -7.4380165289256173e-03
    Z_360_0_1  Z_473_0_1  -7.0854426499632750e-02
    Z_360_0_1  Z_115_0_1  -2.8341527383454183e-02
    Z_360_0_1  Z_445_0_1  -1.0512373229985647e-01
    Z_360_0_1  Z_412_1_1  -7.4380165289256173e-03
    Z_360_0_2  Z_473_0_2  -7.0854426499632750e-02
    Z_360_0_2  Z_115_0_2  -2.8341527383454183e-02
    Z_360_0_2  Z_445_0_2  -1.0512373229985647e-01
    Z_360_0_2  Z_412_1_2  -7.4380165289256173e-03
    Z_360_0_3  Z_473_0_3  -7.0854426499632750e-02
    Z_360_0_3  Z_115_0_3  -2.8341527383454183e-02
    Z_360_0_3  Z_445_0_3  -1.0512373229985647e-01
    Z_360_0_3  Z_412_1_3  -7.4380165289256173e-03
    Z_360_0_4  Z_473_0_4  -7.0854426499632750e-02
    Z_360_0_4  Z_115_0_4  -2.8341527383454183e-02
    Z_360_0_4  Z_445_0_4  -1.0512373229985647e-01
    Z_360_0_4  Z_412_1_4  -7.4380165289256173e-03
    Z_473_0_0  Z_115_0_0  -1.0784741698532956e-01
    Z_473_0_0  Z_445_0_0  -1.0197898008601888e-01
    Z_473_0_0  Z_412_1_0  -7.4380165289256173e-03
    Z_473_0_1  Z_115_0_1  -1.0784741698532956e-01
    Z_473_0_1  Z_445_0_1  -1.0197898008601888e-01
    Z_473_0_1  Z_412_1_1  -7.4380165289256173e-03
    Z_473_0_2  Z_115_0_2  -1.0784741698532956e-01
    Z_473_0_2  Z_445_0_2  -1.0197898008601888e-01
    Z_473_0_2  Z_412_1_2  -7.4380165289256173e-03
    Z_473_0_3  Z_115_0_3  -1.0784741698532956e-01
    Z_473_0_3  Z_445_0_3  -1.0197898008601888e-01
    Z_473_0_3  Z_412_1_3  -7.4380165289256173e-03
    Z_473_0_4  Z_115_0_4  -1.0784741698532956e-01
    Z_473_0_4  Z_445_0_4  -1.0197898008601888e-01
    Z_473_0_4  Z_412_1_4  -7.4380165289256173e-03
    Z_115_0_0  Z_445_0_0  -2.5635522569224124e-02
    Z_115_0_0  Z_412_1_0  -5.2029136316337131e-05
    Z_115_0_1  Z_445_0_1  -2.5635522569224124e-02
    Z_115_0_1  Z_412_1_1  -5.2029136316337131e-05
    Z_115_0_2  Z_445_0_2  -2.5635522569224124e-02
    Z_115_0_2  Z_412_1_2  -5.2029136316337131e-05
    Z_115_0_3  Z_445_0_3  -2.5635522569224124e-02
    Z_115_0_3  Z_412_1_3  -5.2029136316337131e-05
    Z_115_0_4  Z_445_0_4  -2.5635522569224124e-02
    Z_115_0_4  Z_412_1_4  -5.2029136316337131e-05
    Z_445_0_0  Z_412_1_0  -7.4380165289256173e-03
    Z_445_0_1  Z_412_1_1  -7.4380165289256173e-03
    Z_445_0_2  Z_412_1_2  -7.4380165289256173e-03
    Z_445_0_3  Z_412_1_3  -7.4380165289256173e-03
    Z_445_0_4  Z_412_1_4  -7.4380165289256173e-03
ENDATA
